# Model parameters
units               metal
dimension           3
boundary            p p p
neighbor            0.3 bin
neigh_modify        every 5 delay 0

# Define variables
variable		    dt equal 0.001
variable		    T equal 300
variable		    srate equal 0.005
timestep            ${dt}

# Read graphene data
read_data           data.${percent}.lmp #grap.data

# read_restart relax.equil

# delete_atoms porosity all 0.05 12345

# Set potential/force field
pair_style          airebo 3.0 0 0
pair_coeff          * * CH.airebo C

# Minimize energy and force
min_style           cg
minimize            1e-10 1e-10 5000 5000

write_data          graphene_min.xyz
# dump		        1 all custom 100 graphene_min.xyz id type x y z	
# undump            1

# Define computes
# compute 	        1 all stress/atom NULL
# compute           2 all reduce sum c_1[1] c_1[2]

# Initialize temperature
reset_timestep	    0
velocity		    all create ${T} 123456 dist gaussian
fix				    1 all npt temp ${T} ${T} $(100*dt) iso 0 0 $(1000*dt) 
# fix				    1 all npt temp ${T} ${T} $(100*dt) x 0 0 $(1000*dt) y 0 0 $(1000*dt) z 0 0 $(1000*dt)
dump			    1 all custom 5000 graphene_npt.xyz id type x y z
thermo 	            2000
run				    20000 # run 10 ps for relaxation 
unfix			    1
undump 			    1

# write_restart relax.equil

# Define variables
variable		    tmpx equal "lx"
variable            tmpy equal "ly"
variable 		    lx0 equal ${tmpx}
variable 		    ly0 equal ${tmpy}
variable 		    strainx equal "(lx - v_lx0)/v_lx0"
variable 		    stressx equal "-pxx/10000*lz/3.35" # Bar-->GPa
variable 		    stressy equal "-pyy/10000*lz/3.35" # Bar-->GPa

# Deform: tensile strain
reset_timestep 		0	
fix 				1 all npt temp ${T} ${T} $(100*dt) y 0 0 $(1000*dt) z 0 0 $(1000*dt)
# fix 				1 all nvt temp ${T} ${T} $(100*dt)
fix					2 all deform 100 x erate ${srate} remap x units box
fix 				3 all print 100 "${strainx} ${stressx} ${stressy}" file stress-strain-${percent}.dat screen no
dump				1 all custom 100 graphene_strain.xyz id type x y z

run 				50000 

# print 			    "Initial Length LX0: ${lx0}"
# print 			    "Initial Length LY0: ${ly0}"
# print 			    "Simulation DONE !"